; DUP1 PUSH cw_2 DUP1 DUP5 SWAP3 POP => DUP2 PUSH cw_2 PUSH cw_2
(set-option :produce-proofs true)
; 
(set-info :status unknown)
(declare-fun storage_t ((_ BitVec 256) (_ BitVec 256) (_ BitVec 256) Int (_ BitVec 256)) (_ BitVec 256))
(declare-fun w_2 () (_ BitVec 256))
(declare-fun storage_s ((_ BitVec 256) (_ BitVec 256) (_ BitVec 256) Int (_ BitVec 256)) (_ BitVec 256))
(declare-fun exc_halt_t (Int) Bool)
(declare-fun exc_halt_s (Int) Bool)
(declare-fun stack_t ((_ BitVec 256) (_ BitVec 256) (_ BitVec 256) Int (_ BitVec 6)) (_ BitVec 256))
(declare-fun stack_s ((_ BitVec 256) (_ BitVec 256) (_ BitVec 256) Int (_ BitVec 6)) (_ BitVec 256))
(declare-fun sc_t (Int) (_ BitVec 6))
(declare-fun sc_s (Int) (_ BitVec 6))
(declare-fun used_gas_t ((_ BitVec 256) (_ BitVec 256) (_ BitVec 256) Int) Int)
(declare-fun used_gas_s ((_ BitVec 256) (_ BitVec 256) (_ BitVec 256) Int) Int)
(assert
 (exists ((x_0 (_ BitVec 256)) (x_1 (_ BitVec 256)) )(let (($x6458 (forall ((w (_ BitVec 256)) )(let ((?x11742 (storage_t x_0 x_1 w_2 3 w)))
 (let ((?x5323 (storage_s x_0 x_1 w_2 6 w)))
 (= ?x5323 ?x11742))))
 ))
 (let (($x6783 (exc_halt_t 3)))
 (let (($x772 (exc_halt_s 6)))
 (let (($x9151 (= $x772 $x6783)))
 (let (($x10505 (forall ((n (_ BitVec 6)) )(let ((?x6583 (stack_t x_0 x_1 w_2 3 n)))
 (let ((?x1375 (stack_s x_0 x_1 w_2 6 n)))
 (let (($x10369 (= ?x1375 ?x6583)))
 (let ((?x6438 (sc_t 3)))
 (let (($x10190 (bvsle ?x6438 n)))
 (or $x10190 $x10369)))))))
 ))
 (let ((?x6438 (sc_t 3)))
 (let ((?x926 (sc_s 6)))
 (let (($x933 (= ?x926 ?x6438)))
 (let ((?x3704 (used_gas_t x_0 x_1 w_2 0)))
 (let ((?x6647 (used_gas_s x_0 x_1 w_2 0)))
 (let (($x9591 (= ?x6647 ?x3704)))
 (let (($x5146 (forall ((w (_ BitVec 256)) )(let ((?x6442 (storage_t x_0 x_1 w_2 0 w)))
 (let ((?x9235 (storage_s x_0 x_1 w_2 0 w)))
 (= ?x9235 ?x6442))))
 ))
 (let (($x56 (exc_halt_t 0)))
 (let (($x57 (exc_halt_s 0)))
 (let (($x58 (= $x57 $x56)))
 (let (($x4140 (forall ((n (_ BitVec 6)) )(let ((?x63 (sc_t 0)))
 (let (($x4790 (bvsle ?x63 n)))
 (let ((?x1744 (stack_t x_0 x_1 w_2 0 n)))
 (let ((?x3622 (stack_s x_0 x_1 w_2 0 n)))
 (let (($x714 (= ?x3622 ?x1744)))
 (or $x714 $x4790)))))))
 ))
 (let ((?x63 (sc_t 0)))
 (let ((?x72 (sc_s 0)))
 (let (($x73 (= ?x72 ?x63)))
 (let (($x2163 (exc_halt_t 2)))
 (let (($x2249 (or $x2163 (not (= ((_ extract 6 6) (bvadd (_ bv1 7) (concat (_ bv0 1) (sc_t 2)))) (_ bv0 1))))))
 (let (($x8762 (= $x6783 $x2249)))
 (let (($x712 (forall ((w (_ BitVec 256)) )(let ((?x4584 (storage_t x_0 x_1 w_2 2 w)))
 (let ((?x11742 (storage_t x_0 x_1 w_2 3 w)))
 (= ?x11742 ?x4584))))
 ))
 (let (($x7995 (forall ((n (_ BitVec 6)) )(let ((?x2714 (sc_t 2)))
 (let (($x9647 (bvsle ?x2714 n)))
 (let ((?x4397 (stack_t x_0 x_1 w_2 2 n)))
 (let ((?x6583 (stack_t x_0 x_1 w_2 3 n)))
 (or (= ?x6583 ?x4397) $x9647))))))
 ))
 (let (($x9574 (= ?x6438 (bvadd (_ bv1 6) (sc_t 2)))))
 (let (($x10586 (= (used_gas_t x_0 x_1 w_2 3) (+ 3 (used_gas_t x_0 x_1 w_2 2)))))
 (let (($x3854 (not (= ((_ extract 6 6) (bvadd (_ bv1 7) (concat (_ bv0 1) (sc_t 1)))) (_ bv0 1)))))
 (let (($x3508 (exc_halt_t 1)))
 (let (($x6444 (forall ((w (_ BitVec 256)) )(let ((?x841 (storage_t x_0 x_1 w_2 1 w)))
 (let ((?x4584 (storage_t x_0 x_1 w_2 2 w)))
 (= ?x4584 ?x841))))
 ))
 (let (($x2284 (forall ((n (_ BitVec 6)) )(let ((?x8347 (sc_t 1)))
 (let (($x11495 (bvsle ?x8347 n)))
 (let ((?x8363 (stack_t x_0 x_1 w_2 1 n)))
 (let ((?x4397 (stack_t x_0 x_1 w_2 2 n)))
 (let (($x9826 (= ?x4397 ?x8363)))
 (or $x9826 $x11495)))))))
 ))
 (let ((?x2714 (sc_t 2)))
 (let (($x1950 (= ?x2714 (bvadd (_ bv1 6) (sc_t 1)))))
 (let ((?x2343 (used_gas_t x_0 x_1 w_2 2)))
 (let (($x8098 (= ?x2343 (+ 3 (used_gas_t x_0 x_1 w_2 1)))))
 (let (($x2333 (not (= ((_ extract 6 6) (bvadd (_ bv1 7) (concat (_ bv0 1) ?x63))) (_ bv0 1)))))
 (let (($x1791 (not (bvsle (_ bv0 6) (bvadd (_ bv62 6) ?x63)))))
 (let (($x746 (= $x3508 (or $x56 $x1791 $x2333))))
 (let (($x6763 (forall ((w (_ BitVec 256)) )(let ((?x6442 (storage_t x_0 x_1 w_2 0 w)))
 (let ((?x841 (storage_t x_0 x_1 w_2 1 w)))
 (= ?x841 ?x6442))))
 ))
 (let (($x7604 (forall ((n (_ BitVec 6)) )(let ((?x63 (sc_t 0)))
 (let ((?x9097 (bvadd (_ bv62 6) ?x63)))
 (let (($x6887 (bvsle ?x9097 n)))
 (let ((?x1744 (stack_t x_0 x_1 w_2 0 n)))
 (let ((?x8363 (stack_t x_0 x_1 w_2 1 n)))
 (let (($x2666 (= ?x8363 ?x1744)))
 (or $x2666 $x6887))))))))
 ))
 (let ((?x8347 (sc_t 1)))
 (let (($x7449 (= ?x8347 (bvadd (_ bv1 6) ?x63))))
 (let ((?x11194 (used_gas_t x_0 x_1 w_2 1)))
 (let (($x11594 (= ?x11194 (+ 3 ?x3704))))
 (let (($x8785 (= (stack_t x_0 x_1 w_2 1 (bvadd (_ bv63 6) ?x63)) (stack_t x_0 x_1 w_2 0 (bvadd (_ bv63 6) ?x63)))))
 (let ((?x9097 (bvadd (_ bv62 6) ?x63)))
 (let ((?x6530 (stack_t x_0 x_1 w_2 0 ?x9097)))
 (let (($x2342 (= $x772 (or (exc_halt_s 5) (not (bvsle (_ bv0 6) (bvadd (_ bv63 6) (sc_s 5))))))))
 (let (($x2119 (forall ((w (_ BitVec 256)) )(let ((?x3911 (storage_s x_0 x_1 w_2 5 w)))
 (let ((?x5323 (storage_s x_0 x_1 w_2 6 w)))
 (= ?x5323 ?x3911))))
 ))
 (let (($x8467 (forall ((n (_ BitVec 6)) )(let ((?x4680 (stack_s x_0 x_1 w_2 5 n)))
 (let ((?x1375 (stack_s x_0 x_1 w_2 6 n)))
 (let ((?x4319 (sc_s 5)))
 (let ((?x3388 (bvadd (_ bv63 6) ?x4319)))
 (let (($x3076 (bvsle ?x3388 n)))
 (or $x3076 (= ?x1375 ?x4680))))))))
 ))
 (let ((?x4319 (sc_s 5)))
 (let ((?x3388 (bvadd (_ bv63 6) ?x4319)))
 (let (($x2070 (= ?x926 ?x3388)))
 (let (($x6340 (= (used_gas_s x_0 x_1 w_2 6) (+ 2 (used_gas_s x_0 x_1 w_2 5)))))
 (let (($x11317 (exc_halt_s 5)))
 (let (($x8387 (= $x11317 (or (exc_halt_s 4) (not (bvsle (_ bv0 6) (bvadd (_ bv60 6) (sc_s 4))))))))
 (let (($x9494 (forall ((w (_ BitVec 256)) )(let ((?x6312 (storage_s x_0 x_1 w_2 4 w)))
 (let ((?x3911 (storage_s x_0 x_1 w_2 5 w)))
 (= ?x3911 ?x6312))))
 ))
 (let (($x359 (forall ((n (_ BitVec 6)) )(let ((?x6734 (stack_s x_0 x_1 w_2 4 n)))
 (let ((?x4680 (stack_s x_0 x_1 w_2 5 n)))
 (let (($x6381 (= ?x4680 ?x6734)))
 (or (bvsle (bvadd (_ bv60 6) (sc_s 4)) n) $x6381)))))
 ))
 (let ((?x4305 (sc_s 4)))
 (let (($x10545 (= ?x4319 ?x4305)))
 (let ((?x5128 (used_gas_s x_0 x_1 w_2 5)))
 (let (($x7163 (= ?x5128 (+ 3 (used_gas_s x_0 x_1 w_2 4)))))
 (let ((?x11568 (bvadd (_ bv62 6) ?x4305)))
 (let ((?x6655 (stack_s x_0 x_1 w_2 4 ?x11568)))
 (let ((?x3094 (bvadd (_ bv62 6) ?x4319)))
 (let ((?x6031 (stack_s x_0 x_1 w_2 5 ?x3094)))
 (let (($x9054 (= (stack_s x_0 x_1 w_2 5 (bvadd (_ bv61 6) ?x4319)) (stack_s x_0 x_1 w_2 4 (bvadd (_ bv61 6) ?x4305)))))
 (let ((?x10159 (bvadd (_ bv63 6) ?x4305)))
 (let ((?x10214 (stack_s x_0 x_1 w_2 4 ?x10159)))
 (let ((?x8907 (stack_s x_0 x_1 w_2 5 ?x3388)))
 (let (($x908 (not (= ((_ extract 6 6) (bvadd (_ bv1 7) (concat (_ bv0 1) (sc_s 3)))) (_ bv0 1)))))
 (let (($x292 (exc_halt_s 3)))
 (let (($x7172 (exc_halt_s 4)))
 (let (($x3078 (forall ((w (_ BitVec 256)) )(let ((?x563 (storage_s x_0 x_1 w_2 3 w)))
 (let ((?x6312 (storage_s x_0 x_1 w_2 4 w)))
 (= ?x6312 ?x563))))
 ))
 (let (($x1247 (forall ((n (_ BitVec 6)) )(let ((?x9102 (stack_s x_0 x_1 w_2 3 n)))
 (let ((?x6734 (stack_s x_0 x_1 w_2 4 n)))
 (let (($x2866 (= ?x6734 ?x9102)))
 (or (bvsle (bvadd (_ bv59 6) (sc_s 3)) n) $x2866)))))
 ))
 (let (($x10718 (= ?x4305 (bvadd (_ bv1 6) (sc_s 3)))))
 (let ((?x1137 (used_gas_s x_0 x_1 w_2 4)))
 (let (($x1435 (= ?x1137 (+ 3 (used_gas_s x_0 x_1 w_2 3)))))
 (let ((?x275 (sc_s 3)))
 (let ((?x9670 (bvadd (_ bv63 6) ?x275)))
 (let ((?x3265 (stack_s x_0 x_1 w_2 3 ?x9670)))
 (let (($x4569 (= (stack_s x_0 x_1 w_2 4 (bvadd (_ bv62 6) ?x275)) (stack_s x_0 x_1 w_2 3 (bvadd (_ bv62 6) ?x275)))))
 (let (($x5038 (= (stack_s x_0 x_1 w_2 4 (bvadd (_ bv61 6) ?x275)) (stack_s x_0 x_1 w_2 3 (bvadd (_ bv61 6) ?x275)))))
 (let (($x1047 (= (stack_s x_0 x_1 w_2 4 (bvadd (_ bv60 6) ?x275)) (stack_s x_0 x_1 w_2 3 (bvadd (_ bv60 6) ?x275)))))
 (let ((?x10708 (bvadd (_ bv59 6) ?x275)))
 (let ((?x7895 (stack_s x_0 x_1 w_2 3 ?x10708)))
 (let (($x6454 (not (bvsle (_ bv0 6) (bvadd (_ bv63 6) (sc_s 2))))))
 (let (($x842 (not (= ((_ extract 6 6) (bvadd (_ bv1 7) (concat (_ bv0 1) (sc_s 2)))) (_ bv0 1)))))
 (let (($x247 (exc_halt_s 2)))
 (let (($x8484 (forall ((w (_ BitVec 256)) )(let ((?x5849 (storage_s x_0 x_1 w_2 2 w)))
 (let ((?x563 (storage_s x_0 x_1 w_2 3 w)))
 (= ?x563 ?x5849))))
 ))
 (let (($x3190 (forall ((n (_ BitVec 6)) )(let ((?x218 (sc_s 2)))
 (let ((?x7280 (bvadd (_ bv63 6) ?x218)))
 (let (($x1255 (bvsle ?x7280 n)))
 (let ((?x10377 (stack_s x_0 x_1 w_2 2 n)))
 (let ((?x9102 (stack_s x_0 x_1 w_2 3 n)))
 (let (($x673 (= ?x9102 ?x10377)))
 (or $x673 $x1255))))))))
 ))
 (let (($x11700 (= ?x275 (bvadd (_ bv1 6) (sc_s 2)))))
 (let ((?x5169 (used_gas_s x_0 x_1 w_2 3)))
 (let (($x6086 (= ?x5169 (+ 3 (used_gas_s x_0 x_1 w_2 2)))))
 (let ((?x218 (sc_s 2)))
 (let ((?x7280 (bvadd (_ bv63 6) ?x218)))
 (let ((?x7921 (stack_s x_0 x_1 w_2 2 ?x7280)))
 (let (($x9132 (not (= ((_ extract 6 6) (bvadd (_ bv1 7) (concat (_ bv0 1) (sc_s 1)))) (_ bv0 1)))))
 (let (($x189 (exc_halt_s 1)))
 (let (($x8215 (= $x247 (or $x189 $x9132))))
 (let (($x1558 (forall ((w (_ BitVec 256)) )(let ((?x11254 (storage_s x_0 x_1 w_2 1 w)))
 (let ((?x5849 (storage_s x_0 x_1 w_2 2 w)))
 (= ?x5849 ?x11254))))
 ))
 (let (($x846 (forall ((n (_ BitVec 6)) )(let ((?x154 (sc_s 1)))
 (let (($x9673 (bvsle ?x154 n)))
 (let ((?x8498 (stack_s x_0 x_1 w_2 1 n)))
 (let ((?x10377 (stack_s x_0 x_1 w_2 2 n)))
 (let (($x3868 (= ?x10377 ?x8498)))
 (or $x3868 $x9673)))))))
 ))
 (let (($x1347 (= ?x218 (bvadd (_ bv1 6) (sc_s 1)))))
 (let ((?x6893 (used_gas_s x_0 x_1 w_2 2)))
 (let (($x6233 (= ?x6893 (+ 3 (used_gas_s x_0 x_1 w_2 1)))))
 (let (($x9588 (not (bvsle (_ bv0 6) (bvadd (_ bv63 6) ?x72)))))
 (let (($x1483 (not (= ((_ extract 6 6) (bvadd (_ bv1 7) (concat (_ bv0 1) ?x72))) (_ bv0 1)))))
 (let (($x10927 (= $x189 (or $x57 $x1483 $x9588))))
 (let (($x6782 (forall ((w (_ BitVec 256)) )(let ((?x9235 (storage_s x_0 x_1 w_2 0 w)))
 (let ((?x11254 (storage_s x_0 x_1 w_2 1 w)))
 (= ?x11254 ?x9235))))
 ))
 (let (($x10376 (forall ((n (_ BitVec 6)) )(let ((?x72 (sc_s 0)))
 (let ((?x10931 (bvadd (_ bv63 6) ?x72)))
 (let (($x11794 (bvsle ?x10931 n)))
 (let ((?x3622 (stack_s x_0 x_1 w_2 0 n)))
 (let ((?x8498 (stack_s x_0 x_1 w_2 1 n)))
 (let (($x10247 (= ?x8498 ?x3622)))
 (or $x10247 $x11794))))))))
 ))
 (let ((?x154 (sc_s 1)))
 (let (($x11645 (= ?x154 (bvadd (_ bv1 6) ?x72))))
 (let ((?x5093 (used_gas_s x_0 x_1 w_2 1)))
 (let (($x8094 (= ?x5093 (+ 3 ?x6647))))
 (let ((?x10931 (bvadd (_ bv63 6) ?x72)))
 (let ((?x9275 (stack_s x_0 x_1 w_2 0 ?x10931)))
 (let (($x5016 (forall ((w (_ BitVec 256)) )(let ((?x9235 (storage_s x_0 x_1 w_2 0 w)))
 (= ?x9235 (_ bv0 256))))
 ))
 (let (($x4334 (= ?x6647 0)))
 (let (($x11450 (not $x57)))
 (let (($x1242 (= (stack_s x_0 x_1 w_2 0 (_ bv1 6)) x_1)))
 (let (($x2840 (= (stack_s x_0 x_1 w_2 0 (_ bv0 6)) x_0)))
 (let (($x11128 (= ?x72 (_ bv2 6))))
 (and $x11128 $x2840 $x1242 $x11450 $x4334 $x5016 (= (stack_s x_0 x_1 w_2 1 (bvadd (_ bv63 6) ?x154)) ?x9275) (= (stack_s x_0 x_1 w_2 1 ?x10931) ?x9275) $x8094 $x11645 $x10376 $x6782 $x10927 (= (stack_s x_0 x_1 w_2 2 ?x154) w_2) $x6233 $x1347 $x846 $x1558 $x8215 (= ?x3265 ?x7921) (= (stack_s x_0 x_1 w_2 3 ?x7280) ?x7921) $x6086 $x11700 $x3190 $x8484 (= $x292 (or $x247 $x842 $x6454)) (= ?x10214 ?x7895) (= (stack_s x_0 x_1 w_2 4 ?x10708) ?x7895) $x1047 $x5038 $x4569 (= (stack_s x_0 x_1 w_2 4 ?x9670) ?x3265) $x1435 $x10718 $x1247 $x3078 (= $x7172 (or $x292 $x908 (not (bvsle (_ bv0 6) ?x10708)))) (= ?x8907 (stack_s x_0 x_1 w_2 4 (bvadd (_ bv60 6) ?x4305))) (= (stack_s x_0 x_1 w_2 5 (bvadd (_ bv60 6) ?x4319)) ?x10214) $x9054 (= ?x6031 ?x6655) $x7163 $x10545 $x359 $x9494 $x8387 $x6340 $x2070 $x8467 $x2119 $x2342 (= (stack_t x_0 x_1 w_2 1 (bvadd (_ bv63 6) ?x8347)) ?x6530) (= (stack_t x_0 x_1 w_2 1 ?x9097) ?x6530) $x8785 $x11594 $x7449 $x7604 $x6763 $x746 (= (stack_t x_0 x_1 w_2 2 ?x8347) w_2) $x8098 $x1950 $x2284 $x6444 (= $x2163 (or $x3508 $x3854)) (= (stack_t x_0 x_1 w_2 3 ?x2714) w_2) $x10586 $x9574 $x7995 $x712 $x8762 $x73 $x4140 $x58 $x5146 $x9591 (not (and $x933 $x10505 $x9151 $x6458)))))))))))))))))))))))))))))))))))))))))))))))))))))))))))))))))))))))))))))))))))))))))))))))))))))))))))))))))))))))))))))
 )
(check-sat)
(get-proof)
